language ESSENCE' 1.0

$---------------------------------------------------------------------------
$ Actual parameters
$---------------------------------------------------------------------------

letting n be 5

$---------------------------------------------------------------------------
$ Actual parameters
$---------------------------------------------------------------------------

letting squareType be [
[0,0,0,0,0],
[0,0,0,0,0],
[1,0,2,0,1],
[0,0,0,0,0],
[0,0,0,0,0],
]

letting clues be[
[0,0,0,0,0],
[0,0,0,0,0],
[0,0,4,0,0],
[0,0,0,0,0],
[0,0,0,0,0],
]
